%BLOCK LATTICE_CART
2.827266             0.000000             0.000000            
-1.413633            2.448484             0.000000            
0.000000             0.000000             4.707411            
%ENDBLOCK LATTICE_CART

%BLOCK POSITIONS_FRAC
Al    0.000000             0.000000             0.000000            
Al    0.333333             0.666667             0.500000            
%ENDBLOCK POSITIONS_FRAC

%BLOCK SPECIES_POT
Al al_HC.lda.recpot
%ENDBLOCK SPECIES_POT
