%BLOCK LATTICE_CART
2.785927             0.000000             0.000000            
-1.392964            2.412684             0.000000            
0.000000             0.000000             4.638582            
%ENDBLOCK LATTICE_CART

%BLOCK POSITIONS_FRAC
Al    0.000000             0.000000             0.000000            
Al    0.333333             0.666667             0.500000            
%ENDBLOCK POSITIONS_FRAC

%BLOCK SPECIES_POT
Al al_HC.lda.recpot
%ENDBLOCK SPECIES_POT
