%BLOCK LATTICE_CART
2.803644             0.000000             0.000000            
-1.401822            2.428027             0.000000            
0.000000             0.000000             4.668080            
%ENDBLOCK LATTICE_CART

%BLOCK POSITIONS_FRAC
Al    0.000000             0.000000             0.000000            
Al    0.333333             0.666667             0.500000            
%ENDBLOCK POSITIONS_FRAC

%BLOCK SPECIES_POT
Al al_HC.lda.recpot
%ENDBLOCK SPECIES_POT
